# Objective value = 38
WA1n 0
WA1p 0
WA2n 0
WA2p 1
WB1n 0
WB1p 0
WB2n 0
WB2p 1
WC1n 0
WC1p 1
WD1n 2
WD1p 0
WD2n 0
WD2p 0
WE1n 2
WE1p 0
WE2n 0
WE2p 0
WF1n 2
WF1p 0
WF2n 0
WF2p 0
WG1n 2
WG1p 0
WG2n 0
WG2p 0
WH1n 0
WH1p 2
WH2n 0
WH2p 0
WI1n 0
WI1p 2
WI2n 0
WI2p 0
WJ1n 13
WJ1p 0
WT1n 8
WT1p 0
100 113
a 1
b 1
c 1
d 1
e 1
f 1
g 1
h 1
i 1
j 1
k 1
l 1
m 1
n 1
o 1
p 1
q 1
r 1
s 1
